\ SCIP STATISTICS
\   Problem name     : SetCover-100-200
\   Variables        : 200 (200 binary, 0 integer, 0 implicit integer, 0 continuous)
\   Constraints      : 100
Minimize
 Obj: +72 x0 +53 x1 +62 x2 +21 x3 +47 x4 +85 x5 +41 x6 +100 x7 +28 x8 +100 x9 +48 x10 +38 x11 +50 x12
      +9 x13 +31 x14 +74 x15 +48 x16 +22 x17 +92 x18 +51 x19 +75 x20 +39 x21 +69 x22 +62 x23 +29 x24 +36 x25
      +8 x26 +23 x27 +58 x28 +65 x29 +47 x30 +76 x31 +8 x32 +37 x33 +17 x34 +23 x35 +10 x36 +60 x37 +11 x38
      +38 x39 +22 x40 +22 x41 +39 x42 +56 x43 +86 x44 +40 x45 +44 x46 +59 x47 +69 x48 +7 x49 +29 x50 +48 x51
      +77 x52 +35 x53 +7 x54 +75 x55 +61 x56 +1 x57 +21 x58 +85 x59 +5 x60 +98 x61 +99 x62 +50 x63 +33 x64
      +33 x65 +41 x66 +6 x67 +88 x68 +4 x69 +38 x70 +92 x71 +78 x72 +11 x73 +48 x74 +26 x75 +33 x76 +94 x77
      +43 x78 +75 x79 +81 x80 +22 x81 +31 x82 +22 x83 +49 x84 +72 x85 +84 x86 +36 x87 +19 x88 +28 x89
      +36 x90 +10 x91 +60 x92 +51 x93 +49 x94 +63 x95 +27 x96 +91 x97 +37 x98 +65 x99 +28 x100 +43 x101
      +98 x102 +93 x103 +80 x104 +63 x105 +35 x106 +19 x107 +54 x108 +2 x109 +15 x110 +89 x111 +10 x112
      +65 x113 +88 x114 +75 x115 +23 x116 +29 x117 +30 x118 +42 x119 +24 x120 +91 x121 +3 x122 +57 x123
      +79 x124 +81 x125 +17 x126 +74 x127 +89 x128 +50 x129 +66 x130 +32 x131 +31 x132 +72 x133 +32 x134
      +71 x135 +69 x136 +27 x137 +33 x138 +17 x139 +24 x140 +91 x141 +89 x142 +70 x143 +34 x144 +6 x145
      +32 x146 +93 x147 +59 x148 +77 x149 +63 x150 +70 x151 +68 x152 +48 x153 +97 x154 +31 x155 +46 x156
      +78 x157 +35 x158 +63 x159 +50 x160 +76 x161 +70 x162 +89 x163 +50 x164 +49 x165 +52 x166 +71 x167
      +41 x168 +11 x169 +100 x170 +79 x171 +53 x172 +100 x173 +8 x174 +6 x175 +92 x176 +88 x177 +52 x178
      +22 x179 +85 x180 +100 x181 +54 x182 +34 x183 +28 x184 +75 x185 +15 x186 +45 x187 +84 x188 +59 x189
      +60 x190 +35 x191 +89 x192 +8 x193 +13 x194 +26 x195 +8 x196 +49 x197 +86 x198 +72 x199
Subject to
 c0: +1 x2 +1 x7 +1 x11 +1 x24 +1 x32 +1 x41 +1 x42 +1 x44 +1 x63 +1 x65 +1 x66 +1 x67 +1 x73 +1 x75 +1 x77
  +1 x85 +1 x86 +1 x95 +1 x101 +1 x112 +1 x127 +1 x139 +1 x143 +1 x147 +1 x156 +1 x157 +1 x159 +1 x165
  +1 x166 +1 x171 +1 x172 +1 x175 +1 x176 +1 x178 +1 x183 +1 x185 +1 x193 +1 x198 >= +1
 c1: +1 x0 +1 x10 +1 x16 +1 x22 +1 x30 +1 x38 +1 x62 +1 x72 +1 x85 +1 x100 +1 x113 +1 x114 +1 x122 +1 x128
  +1 x130 +1 x139 +1 x146 +1 x147 +1 x164 +1 x173 +1 x174 +1 x185 +1 x190 +1 x198 +1 x199 >= +1
 c2: +1 x0 +1 x6 +1 x11 +1 x15 +1 x18 +1 x19 +1 x36 +1 x39 +1 x46 +1 x55 +1 x64 +1 x67 +1 x72 +1 x81 +1 x134
  +1 x141 +1 x146 +1 x150 +1 x165 +1 x170 +1 x171 +1 x174 +1 x177 +1 x178 +1 x186 +1 x193 +1 x195 +1 x196
  >= +1
 c3: +1 x5 +1 x17 +1 x18 +1 x19 +1 x35 +1 x41 +1 x46 +1 x47 +1 x88 +1 x93 +1 x94 +1 x96 +1 x101 +1 x111
  +1 x125 +1 x126 +1 x135 +1 x136 +1 x146 +1 x149 +1 x161 +1 x169 +1 x176 +1 x179 +1 x180 +1 x191 >= +1
 c4: +1 x1 +1 x9 +1 x16 +1 x21 +1 x40 +1 x56 +1 x72 +1 x81 +1 x90 +1 x92 +1 x98 +1 x119 +1 x123 +1 x126
  +1 x127 +1 x130 +1 x161 +1 x162 +1 x164 +1 x166 +1 x168 +1 x174 +1 x197 >= +1
 c5: +1 x0 +1 x9 +1 x10 +1 x12 +1 x18 +1 x19 +1 x30 +1 x68 +1 x70 +1 x71 +1 x74 +1 x80 +1 x85 +1 x86 +1 x88
  +1 x116 +1 x121 +1 x130 +1 x132 +1 x136 +1 x146 +1 x150 +1 x159 +1 x164 +1 x168 +1 x172 +1 x176 +1 x177
  +1 x179 +1 x189 +1 x194 +1 x196 >= +1
 c6: +1 x5 +1 x25 +1 x27 +1 x30 +1 x40 +1 x53 +1 x63 +1 x66 +1 x77 +1 x101 +1 x114 +1 x132 +1 x135 +1 x145
  +1 x150 +1 x161 +1 x171 +1 x172 +1 x174 +1 x186 >= +1
 c7: +1 x1 +1 x49 +1 x66 +1 x74 +1 x87 +1 x89 +1 x93 +1 x97 +1 x98 +1 x107 +1 x120 +1 x121 +1 x122 +1 x125
  +1 x128 +1 x133 +1 x134 +1 x135 +1 x149 +1 x153 +1 x178 +1 x197 >= +1
 c8: +1 x5 +1 x26 +1 x29 +1 x33 +1 x49 +1 x57 +1 x69 +1 x73 +1 x78 +1 x81 +1 x85 +1 x98 +1 x104 +1 x112
  +1 x114 +1 x119 +1 x124 +1 x136 +1 x146 +1 x151 +1 x158 +1 x160 +1 x161 +1 x167 +1 x168 +1 x173 +1 x178
  +1 x180 +1 x199 >= +1
 c9: +1 x4 +1 x16 +1 x20 +1 x29 +1 x35 +1 x52 +1 x56 +1 x58 +1 x62 +1 x73 +1 x78 +1 x92 +1 x102 +1 x104
  +1 x106 +1 x109 +1 x110 +1 x121 +1 x125 +1 x139 +1 x154 +1 x157 +1 x177 +1 x193 +1 x197 +1 x199 >= +1
 c10: +1 x2 +1 x16 +1 x20 +1 x26 +1 x30 +1 x38 +1 x39 +1 x49 +1 x50 +1 x56 +1 x58 +1 x61 +1 x63 +1 x66
  +1 x94 +1 x106 +1 x130 +1 x138 +1 x154 +1 x156 +1 x167 +1 x171 +1 x174 +1 x175 +1 x176 +1 x180 +1 x181
  >= +1
 c11: +1 x2 +1 x21 +1 x25 +1 x34 +1 x42 +1 x43 +1 x52 +1 x53 +1 x63 +1 x64 +1 x76 +1 x81 +1 x93 +1 x96
  +1 x103 +1 x110 +1 x112 +1 x115 +1 x116 +1 x126 +1 x136 +1 x138 +1 x147 +1 x152 +1 x158 +1 x163 +1 x176
  +1 x179 +1 x190 >= +1
 c12: +1 x5 +1 x15 +1 x19 +1 x26 +1 x28 +1 x30 +1 x38 +1 x44 +1 x48 +1 x64 +1 x74 +1 x76 +1 x80 +1 x101
  +1 x104 +1 x111 +1 x123 +1 x124 +1 x129 +1 x136 +1 x138 +1 x142 +1 x143 +1 x151 +1 x159 +1 x166 +1 x167
  +1 x174 +1 x178 +1 x179 +1 x189 >= +1
 c13: +1 x2 +1 x7 +1 x11 +1 x12 +1 x15 +1 x19 +1 x21 +1 x47 +1 x71 +1 x88 +1 x89 +1 x90 +1 x103 +1 x111
  +1 x118 +1 x127 +1 x133 +1 x137 +1 x152 +1 x155 +1 x159 +1 x163 +1 x179 +1 x180 +1 x183 +1 x186 +1 x188
  +1 x191 >= +1
 c14: +1 x4 +1 x11 +1 x16 +1 x17 +1 x18 +1 x21 +1 x27 +1 x32 +1 x36 +1 x37 +1 x40 +1 x57 +1 x73 +1 x75
  +1 x79 +1 x83 +1 x91 +1 x97 +1 x102 +1 x103 +1 x107 +1 x122 +1 x134 +1 x157 +1 x161 +1 x165 +1 x170
  +1 x171 +1 x172 +1 x176 +1 x179 +1 x182 +1 x186 +1 x193 >= +1
 c15: +1 x3 +1 x22 +1 x54 +1 x56 +1 x57 +1 x65 +1 x68 +1 x70 +1 x71 +1 x75 +1 x77 +1 x79 +1 x80 +1 x82
  +1 x84 +1 x87 +1 x91 +1 x92 +1 x94 +1 x108 +1 x120 +1 x121 +1 x122 +1 x125 +1 x126 +1 x128 +1 x140 +1 x145
  +1 x153 +1 x159 +1 x163 +1 x170 +1 x182 +1 x186 +1 x199 >= +1
 c16: +1 x4 +1 x10 +1 x21 +1 x23 +1 x26 +1 x32 +1 x40 +1 x41 +1 x43 +1 x53 +1 x56 +1 x59 +1 x60 +1 x66
  +1 x69 +1 x70 +1 x91 +1 x93 +1 x94 +1 x100 +1 x122 +1 x129 +1 x130 +1 x137 +1 x144 +1 x149 +1 x151 +1 x152
  +1 x158 +1 x162 +1 x164 +1 x165 +1 x166 +1 x184 +1 x187 +1 x188 +1 x190 +1 x191 >= +1
 c17: +1 x3 +1 x10 +1 x13 +1 x14 +1 x19 +1 x24 +1 x26 +1 x27 +1 x31 +1 x32 +1 x36 +1 x42 +1 x47 +1 x53
  +1 x56 +1 x70 +1 x72 +1 x89 +1 x91 +1 x92 +1 x105 +1 x106 +1 x110 +1 x121 +1 x139 +1 x174 +1 x175 +1 x179
  +1 x180 +1 x181 +1 x186 >= +1
 c18: +1 x3 +1 x27 +1 x29 +1 x36 +1 x40 +1 x41 +1 x58 +1 x60 +1 x61 +1 x63 +1 x89 +1 x98 +1 x102 +1 x103
  +1 x110 +1 x114 +1 x136 +1 x139 +1 x154 +1 x180 +1 x183 +1 x190 +1 x191 +1 x193 >= +1
 c19: +1 x0 +1 x19 +1 x21 +1 x26 +1 x28 +1 x38 +1 x42 +1 x49 +1 x51 +1 x54 +1 x56 +1 x57 +1 x59 +1 x60
  +1 x69 +1 x76 +1 x79 +1 x82 +1 x92 +1 x93 +1 x118 +1 x119 +1 x137 +1 x140 +1 x141 +1 x142 +1 x148 +1 x159
  +1 x167 +1 x172 +1 x184 +1 x186 +1 x189 +1 x195 +1 x197 >= +1
 c20: +1 x6 +1 x16 +1 x24 +1 x27 +1 x40 +1 x52 +1 x66 +1 x71 +1 x83 +1 x85 +1 x92 +1 x94 +1 x109 +1 x111
  +1 x129 +1 x132 +1 x139 +1 x148 +1 x149 +1 x182 +1 x187 +1 x193 +1 x198 >= +1
 c21: +1 x1 +1 x6 +1 x9 +1 x13 +1 x16 +1 x23 +1 x24 +1 x25 +1 x34 +1 x39 +1 x58 +1 x63 +1 x83 +1 x88 +1 x101
  +1 x104 +1 x119 +1 x121 +1 x127 +1 x134 +1 x144 +1 x160 +1 x166 +1 x170 +1 x171 +1 x178 +1 x181 +1 x187
  +1 x189 +1 x194 >= +1
 c22: +1 x1 +1 x9 +1 x13 +1 x30 +1 x37 +1 x38 +1 x46 +1 x49 +1 x55 +1 x56 +1 x57 +1 x60 +1 x69 +1 x71
  +1 x81 +1 x93 +1 x97 +1 x99 +1 x120 +1 x121 +1 x126 +1 x135 +1 x137 +1 x144 +1 x149 +1 x168 +1 x178
  +1 x179 +1 x185 +1 x193 >= +1
 c23: +1 x0 +1 x9 +1 x12 +1 x13 +1 x14 +1 x38 +1 x39 +1 x43 +1 x53 +1 x59 +1 x62 +1 x66 +1 x68 +1 x76
  +1 x85 +1 x99 +1 x105 +1 x113 +1 x114 +1 x125 +1 x131 +1 x132 +1 x139 +1 x148 +1 x171 +1 x173 +1 x198
  >= +1
 c24: +1 x4 +1 x28 +1 x39 +1 x43 +1 x44 +1 x52 +1 x74 +1 x96 +1 x103 +1 x112 +1 x120 +1 x123 +1 x130 +1 x133
  +1 x137 +1 x143 +1 x158 +1 x165 +1 x175 +1 x182 +1 x186 +1 x194 +1 x199 >= +1
 c25: +1 x6 +1 x12 +1 x13 +1 x17 +1 x18 +1 x23 +1 x34 +1 x40 +1 x62 +1 x66 +1 x77 +1 x78 +1 x82 +1 x89
  +1 x106 +1 x117 +1 x120 +1 x122 +1 x129 +1 x130 +1 x135 +1 x141 +1 x142 +1 x144 +1 x151 +1 x164 +1 x177
  +1 x178 +1 x179 +1 x189 +1 x191 +1 x192 +1 x193 +1 x194 +1 x199 >= +1
 c26: +1 x2 +1 x9 +1 x16 +1 x17 +1 x20 +1 x21 +1 x23 +1 x28 +1 x57 +1 x59 +1 x65 +1 x75 +1 x76 +1 x81
  +1 x84 +1 x107 +1 x113 +1 x120 +1 x124 +1 x134 +1 x135 +1 x149 +1 x151 +1 x152 +1 x168 +1 x184 +1 x187
  +1 x193 +1 x194 +1 x196 >= +1
 c27: +1 x3 +1 x10 +1 x35 +1 x38 +1 x39 +1 x42 +1 x43 +1 x47 +1 x50 +1 x52 +1 x57 +1 x70 +1 x73 +1 x77
  +1 x79 +1 x80 +1 x88 +1 x97 +1 x100 +1 x109 +1 x124 +1 x125 +1 x126 +1 x131 +1 x145 +1 x171 +1 x174
  +1 x175 +1 x180 +1 x199 >= +1
 c28: +1 x6 +1 x8 +1 x18 +1 x27 +1 x29 +1 x32 +1 x34 +1 x36 +1 x59 +1 x60 +1 x66 +1 x74 +1 x81 +1 x91
  +1 x92 +1 x105 +1 x106 +1 x107 +1 x108 +1 x110 +1 x117 +1 x119 +1 x138 +1 x141 +1 x146 +1 x152 +1 x156
  +1 x158 +1 x159 +1 x163 +1 x167 +1 x187 +1 x198 >= +1
 c29: +1 x4 +1 x27 +1 x32 +1 x54 +1 x60 +1 x64 +1 x71 +1 x78 +1 x81 +1 x89 +1 x90 +1 x101 +1 x102 +1 x114
  +1 x115 +1 x120 +1 x127 +1 x139 +1 x140 +1 x142 +1 x153 +1 x155 +1 x161 +1 x166 +1 x180 +1 x189 >= +1
 c30: +1 x5 +1 x19 +1 x24 +1 x25 +1 x37 +1 x41 +1 x48 +1 x51 +1 x60 +1 x66 +1 x70 +1 x71 +1 x72 +1 x75
  +1 x79 +1 x97 +1 x120 +1 x136 +1 x143 +1 x147 +1 x148 +1 x182 +1 x193 +1 x199 >= +1
 c31: +1 x4 +1 x11 +1 x12 +1 x14 +1 x19 +1 x24 +1 x34 +1 x48 +1 x61 +1 x63 +1 x71 +1 x76 +1 x84 +1 x89
  +1 x97 +1 x124 +1 x127 +1 x137 +1 x138 +1 x142 +1 x145 +1 x152 +1 x162 +1 x168 +1 x171 +1 x173 +1 x181
  +1 x185 +1 x187 +1 x194 >= +1
 c32: +1 x1 +1 x27 +1 x42 +1 x54 +1 x55 +1 x67 +1 x104 +1 x107 +1 x117 +1 x119 +1 x129 +1 x147 +1 x150
  +1 x154 +1 x162 +1 x164 +1 x166 +1 x167 +1 x175 +1 x191 +1 x199 >= +1
 c33: +1 x0 +1 x9 +1 x14 +1 x17 +1 x18 +1 x19 +1 x25 +1 x26 +1 x27 +1 x29 +1 x30 +1 x37 +1 x38 +1 x44
  +1 x46 +1 x52 +1 x63 +1 x67 +1 x69 +1 x72 +1 x80 +1 x85 +1 x93 +1 x101 +1 x104 +1 x111 +1 x119 +1 x123
  +1 x125 +1 x126 +1 x128 +1 x139 +1 x143 +1 x144 +1 x150 +1 x151 +1 x156 +1 x158 +1 x160 +1 x167 +1 x173
  +1 x178 +1 x192 +1 x194 +1 x199 >= +1
 c34: +1 x0 +1 x11 +1 x13 +1 x15 +1 x23 +1 x39 +1 x42 +1 x58 +1 x72 +1 x79 +1 x89 +1 x91 +1 x92 +1 x98
  +1 x99 +1 x124 +1 x126 +1 x140 +1 x142 +1 x143 +1 x147 +1 x163 +1 x170 +1 x173 +1 x175 +1 x177 +1 x182
  +1 x185 +1 x193 +1 x199 >= +1
 c35: +1 x3 +1 x9 +1 x12 +1 x20 +1 x21 +1 x30 +1 x37 +1 x45 +1 x49 +1 x52 +1 x59 +1 x61 +1 x62 +1 x82
  +1 x84 +1 x104 +1 x112 +1 x123 +1 x124 +1 x131 +1 x138 +1 x150 +1 x153 +1 x154 +1 x182 +1 x185 +1 x192
  +1 x194 +1 x197 +1 x199 >= +1
 c36: +1 x3 +1 x11 +1 x20 +1 x21 +1 x27 +1 x33 +1 x38 +1 x44 +1 x48 +1 x54 +1 x55 +1 x62 +1 x63 +1 x77
  +1 x82 +1 x94 +1 x108 +1 x117 +1 x135 +1 x140 +1 x141 +1 x147 +1 x150 +1 x156 +1 x161 +1 x163 +1 x172
  +1 x176 +1 x180 +1 x195 +1 x196 >= +1
 c37: +1 x6 +1 x11 +1 x13 +1 x35 +1 x40 +1 x47 +1 x53 +1 x56 +1 x73 +1 x91 +1 x105 +1 x107 +1 x113 +1 x118
  +1 x120 +1 x121 +1 x123 +1 x125 +1 x128 +1 x129 +1 x150 +1 x152 +1 x160 +1 x165 +1 x166 +1 x168 +1 x173
  +1 x174 +1 x176 +1 x182 >= +1
 c38: +1 x4 +1 x10 +1 x12 +1 x17 +1 x27 +1 x29 +1 x34 +1 x36 +1 x38 +1 x39 +1 x47 +1 x55 +1 x57 +1 x60
  +1 x62 +1 x88 +1 x113 +1 x118 +1 x122 +1 x132 +1 x138 +1 x143 +1 x145 +1 x152 +1 x156 +1 x165 +1 x166
  +1 x167 +1 x172 +1 x177 +1 x184 +1 x186 +1 x187 +1 x188 +1 x190 +1 x197 >= +1
 c39: +1 x4 +1 x7 +1 x12 +1 x15 +1 x23 +1 x26 +1 x35 +1 x37 +1 x38 +1 x39 +1 x68 +1 x72 +1 x78 +1 x85
  +1 x99 +1 x122 +1 x129 +1 x142 +1 x160 +1 x161 +1 x173 +1 x174 +1 x183 +1 x184 +1 x186 +1 x191 >= +1
 c40: +1 x3 +1 x11 +1 x12 +1 x24 +1 x26 +1 x32 +1 x40 +1 x45 +1 x49 +1 x54 +1 x64 +1 x78 +1 x81 +1 x89
  +1 x105 +1 x106 +1 x107 +1 x114 +1 x125 +1 x128 +1 x141 +1 x153 +1 x155 +1 x157 +1 x159 +1 x167 +1 x179
  +1 x183 +1 x193 +1 x195 +1 x196 >= +1
 c41: +1 x3 +1 x6 +1 x8 +1 x13 +1 x19 +1 x24 +1 x33 +1 x38 +1 x60 +1 x62 +1 x79 +1 x86 +1 x87 +1 x92 +1 x97
  +1 x99 +1 x112 +1 x124 +1 x125 +1 x126 +1 x128 +1 x129 +1 x138 +1 x141 +1 x142 +1 x143 +1 x151 +1 x152
  +1 x154 +1 x169 +1 x170 +1 x173 +1 x174 +1 x178 +1 x185 +1 x188 +1 x190 +1 x197 +1 x199 >= +1
 c42: +1 x2 +1 x11 +1 x12 +1 x13 +1 x24 +1 x27 +1 x31 +1 x35 +1 x41 +1 x55 +1 x56 +1 x59 +1 x67 +1 x72
  +1 x83 +1 x84 +1 x88 +1 x103 +1 x111 +1 x120 +1 x131 +1 x137 +1 x142 +1 x149 +1 x151 +1 x155 +1 x157
  +1 x162 +1 x174 +1 x188 +1 x196 +1 x197 +1 x198 >= +1
 c43: +1 x5 +1 x10 +1 x20 +1 x22 +1 x32 +1 x33 +1 x35 +1 x38 +1 x50 +1 x54 +1 x68 +1 x76 +1 x85 +1 x93
  +1 x97 +1 x113 +1 x117 +1 x120 +1 x127 +1 x130 +1 x132 +1 x134 +1 x146 +1 x152 +1 x155 +1 x156 +1 x179
  +1 x181 +1 x183 >= +1
 c44: +1 x3 +1 x10 +1 x11 +1 x13 +1 x19 +1 x40 +1 x51 +1 x54 +1 x62 +1 x65 +1 x73 +1 x88 +1 x110 +1 x112
  +1 x116 +1 x117 +1 x124 +1 x128 +1 x131 +1 x140 +1 x149 +1 x153 +1 x159 +1 x160 +1 x161 +1 x176 +1 x185
  +1 x190 +1 x198 >= +1
 c45: +1 x2 +1 x10 +1 x11 +1 x20 +1 x33 +1 x41 +1 x44 +1 x51 +1 x53 +1 x70 +1 x78 +1 x80 +1 x81 +1 x84
  +1 x91 +1 x93 +1 x102 +1 x106 +1 x111 +1 x113 +1 x124 +1 x134 +1 x136 +1 x142 +1 x143 +1 x145 +1 x155
  +1 x158 +1 x160 +1 x161 +1 x173 +1 x194 +1 x196 +1 x197 +1 x199 >= +1
 c46: +1 x5 +1 x7 +1 x11 +1 x17 +1 x36 +1 x40 +1 x44 +1 x53 +1 x54 +1 x63 +1 x69 +1 x75 +1 x83 +1 x100
  +1 x105 +1 x109 +1 x116 +1 x123 +1 x127 +1 x130 +1 x131 +1 x132 +1 x140 +1 x153 +1 x154 +1 x155 +1 x157
  +1 x162 +1 x163 +1 x169 +1 x171 +1 x172 +1 x181 >= +1
 c47: +1 x2 +1 x14 +1 x15 +1 x35 +1 x40 +1 x52 +1 x53 +1 x59 +1 x62 +1 x63 +1 x67 +1 x73 +1 x83 +1 x89
  +1 x90 +1 x98 +1 x105 +1 x113 +1 x114 +1 x133 +1 x134 +1 x140 +1 x145 +1 x147 +1 x155 +1 x162 +1 x164
  +1 x168 +1 x173 +1 x174 +1 x177 +1 x183 +1 x185 +1 x186 +1 x190 +1 x193 >= +1
 c48: +1 x6 +1 x14 +1 x15 +1 x16 +1 x19 +1 x22 +1 x39 +1 x54 +1 x75 +1 x79 +1 x82 +1 x91 +1 x95 +1 x99
  +1 x101 +1 x124 +1 x130 +1 x134 +1 x140 +1 x152 +1 x166 +1 x168 +1 x173 +1 x175 +1 x176 +1 x183 >= +1
 c49: +1 x2 +1 x17 +1 x26 +1 x28 +1 x32 +1 x40 +1 x47 +1 x50 +1 x54 +1 x57 +1 x60 +1 x70 +1 x80 +1 x81
  +1 x91 +1 x95 +1 x100 +1 x107 +1 x108 +1 x117 +1 x136 +1 x141 +1 x155 +1 x159 +1 x160 +1 x167 +1 x171
  +1 x172 +1 x176 +1 x188 +1 x189 +1 x191 >= +1
 c50: +1 x4 +1 x6 +1 x11 +1 x14 +1 x39 +1 x44 +1 x50 +1 x53 +1 x55 +1 x57 +1 x62 +1 x69 +1 x72 +1 x77
  +1 x85 +1 x92 +1 x97 +1 x103 +1 x105 +1 x110 +1 x117 +1 x127 +1 x134 +1 x143 +1 x145 +1 x146 +1 x152
  +1 x153 +1 x157 +1 x159 +1 x160 +1 x172 +1 x176 +1 x177 +1 x179 >= +1
 c51: +1 x2 +1 x19 +1 x28 +1 x34 +1 x36 +1 x40 +1 x41 +1 x49 +1 x63 +1 x72 +1 x83 +1 x93 +1 x105 +1 x106
  +1 x117 +1 x119 +1 x122 +1 x131 +1 x139 +1 x155 +1 x157 +1 x160 +1 x165 +1 x166 +1 x168 +1 x169 +1 x173
  +1 x184 +1 x191 +1 x192 +1 x196 >= +1
 c52: +1 x1 +1 x8 +1 x33 +1 x39 +1 x42 +1 x63 +1 x75 +1 x86 +1 x91 +1 x95 +1 x100 +1 x110 +1 x111 +1 x120
  +1 x150 +1 x156 +1 x163 +1 x164 +1 x168 +1 x173 +1 x181 +1 x191 >= +1
 c53: +1 x5 +1 x16 +1 x20 +1 x23 +1 x28 +1 x31 +1 x40 +1 x58 +1 x63 +1 x72 +1 x75 +1 x82 +1 x88 +1 x101
  +1 x105 +1 x112 +1 x119 +1 x122 +1 x124 +1 x139 +1 x140 +1 x144 +1 x146 +1 x147 +1 x151 +1 x158 +1 x176
  +1 x189 +1 x193 +1 x196 +1 x198 >= +1
 c54: +1 x5 +1 x6 +1 x14 +1 x15 +1 x17 +1 x34 +1 x37 +1 x40 +1 x41 +1 x46 +1 x54 +1 x80 +1 x90 +1 x97
  +1 x99 +1 x107 +1 x121 +1 x123 +1 x125 +1 x140 +1 x175 +1 x176 +1 x183 +1 x192 +1 x195 >= +1
 c55: +1 x4 +1 x10 +1 x12 +1 x23 +1 x32 +1 x38 +1 x44 +1 x47 +1 x58 +1 x63 +1 x66 +1 x72 +1 x83 +1 x105
  +1 x131 +1 x134 +1 x146 +1 x153 +1 x174 +1 x186 +1 x187 +1 x192 +1 x198 >= +1
 c56: +1 x2 +1 x16 +1 x20 +1 x22 +1 x24 +1 x35 +1 x52 +1 x58 +1 x65 +1 x66 +1 x78 +1 x98 +1 x101 +1 x102
  +1 x104 +1 x108 +1 x125 +1 x135 +1 x139 +1 x152 +1 x154 +1 x157 +1 x165 +1 x167 +1 x169 +1 x180 +1 x182
  +1 x184 +1 x186 +1 x187 +1 x198 >= +1
 c57: +1 x3 +1 x11 +1 x21 +1 x24 +1 x30 +1 x36 +1 x38 +1 x40 +1 x46 +1 x49 +1 x52 +1 x54 +1 x57 +1 x61
  +1 x69 +1 x76 +1 x77 +1 x87 +1 x90 +1 x98 +1 x109 +1 x113 +1 x118 +1 x123 +1 x129 +1 x131 +1 x137 +1 x138
  +1 x140 +1 x147 +1 x157 +1 x160 +1 x164 +1 x174 +1 x175 +1 x177 +1 x180 +1 x192 +1 x194 +1 x197 +1 x198
  >= +1
 c58: +1 x3 +1 x20 +1 x26 +1 x44 +1 x53 +1 x59 +1 x64 +1 x79 +1 x85 +1 x97 +1 x98 +1 x100 +1 x103 +1 x113
  +1 x119 +1 x121 +1 x125 +1 x126 +1 x134 +1 x135 +1 x145 +1 x146 +1 x155 +1 x164 +1 x180 +1 x190 +1 x192
  >= +1
 c59: +1 x4 +1 x12 +1 x17 +1 x26 +1 x27 +1 x55 +1 x59 +1 x77 +1 x78 +1 x79 +1 x80 +1 x103 +1 x108 +1 x122
  +1 x147 +1 x148 +1 x152 +1 x154 +1 x167 +1 x179 +1 x181 +1 x184 +1 x197 >= +1
 c60: +1 x4 +1 x9 +1 x13 +1 x22 +1 x24 +1 x28 +1 x31 +1 x32 +1 x35 +1 x51 +1 x52 +1 x57 +1 x69 +1 x79
  +1 x84 +1 x87 +1 x112 +1 x117 +1 x126 +1 x130 +1 x135 +1 x140 +1 x142 +1 x146 +1 x148 +1 x152 +1 x156
  +1 x158 +1 x168 +1 x191 +1 x195 >= +1
 c61: +1 x3 +1 x12 +1 x24 +1 x25 +1 x26 +1 x28 +1 x33 +1 x34 +1 x35 +1 x37 +1 x48 +1 x61 +1 x62 +1 x64
  +1 x69 +1 x75 +1 x107 +1 x114 +1 x122 +1 x125 +1 x129 +1 x146 +1 x156 +1 x159 +1 x164 +1 x168 +1 x170
  >= +1
 c62: +1 x5 +1 x7 +1 x8 +1 x14 +1 x15 +1 x17 +1 x29 +1 x31 +1 x32 +1 x42 +1 x45 +1 x47 +1 x54 +1 x65 +1 x83
  +1 x85 +1 x95 +1 x97 +1 x98 +1 x108 +1 x109 +1 x117 +1 x120 +1 x139 +1 x147 +1 x149 +1 x155 +1 x156
  +1 x168 +1 x176 +1 x194 +1 x199 >= +1
 c63: +1 x0 +1 x6 +1 x20 +1 x21 +1 x26 +1 x39 +1 x54 +1 x64 +1 x70 +1 x71 +1 x89 +1 x96 +1 x101 +1 x102
  +1 x103 +1 x105 +1 x107 +1 x118 +1 x119 +1 x128 +1 x144 +1 x145 +1 x150 +1 x159 +1 x164 +1 x166 +1 x167
  +1 x172 +1 x173 +1 x174 +1 x182 +1 x185 +1 x188 +1 x190 +1 x199 >= +1
 c64: +1 x0 +1 x7 +1 x14 +1 x22 +1 x43 +1 x58 +1 x67 +1 x68 +1 x70 +1 x82 +1 x89 +1 x94 +1 x95 +1 x99
  +1 x103 +1 x121 +1 x139 +1 x152 +1 x168 +1 x184 +1 x190 +1 x195 +1 x199 >= +1
 c65: +1 x5 +1 x26 +1 x34 +1 x54 +1 x72 +1 x74 +1 x78 +1 x86 +1 x103 +1 x113 +1 x136 +1 x144 +1 x163 +1 x166
  +1 x184 +1 x191 >= +1
 c66: +1 x4 +1 x12 +1 x27 +1 x40 +1 x47 +1 x50 +1 x51 +1 x52 +1 x70 +1 x95 +1 x108 +1 x117 +1 x122 +1 x130
  +1 x132 +1 x136 +1 x137 +1 x139 +1 x145 +1 x151 +1 x155 +1 x157 +1 x173 +1 x181 +1 x186 +1 x191 >= +1
 c67: +1 x6 +1 x14 +1 x17 +1 x18 +1 x22 +1 x37 +1 x43 +1 x48 +1 x56 +1 x57 +1 x78 +1 x80 +1 x84 +1 x85
  +1 x89 +1 x95 +1 x96 +1 x102 +1 x104 +1 x107 +1 x110 +1 x135 +1 x139 +1 x160 +1 x167 +1 x171 +1 x174
  +1 x183 +1 x194 +1 x198 >= +1
 c68: +1 x5 +1 x9 +1 x11 +1 x15 +1 x21 +1 x22 +1 x26 +1 x30 +1 x35 +1 x47 +1 x54 +1 x55 +1 x57 +1 x59
  +1 x71 +1 x92 +1 x95 +1 x97 +1 x101 +1 x110 +1 x116 +1 x118 +1 x121 +1 x133 +1 x135 +1 x137 +1 x140
  +1 x161 +1 x167 +1 x168 +1 x184 +1 x185 +1 x189 +1 x193 +1 x194 >= +1
 c69: +1 x4 +1 x10 +1 x13 +1 x25 +1 x45 +1 x50 +1 x62 +1 x63 +1 x65 +1 x69 +1 x74 +1 x76 +1 x79 +1 x80
  +1 x88 +1 x94 +1 x97 +1 x101 +1 x111 +1 x120 +1 x123 +1 x124 +1 x153 +1 x156 +1 x163 +1 x169 +1 x173
  +1 x175 +1 x176 +1 x179 +1 x194 >= +1
 c70: +1 x0 +1 x17 +1 x18 +1 x19 +1 x26 +1 x55 +1 x60 +1 x71 +1 x72 +1 x74 +1 x77 +1 x89 +1 x90 +1 x104
  +1 x105 +1 x107 +1 x108 +1 x115 +1 x120 +1 x137 +1 x142 +1 x159 +1 x164 +1 x169 +1 x176 +1 x179 +1 x187
  +1 x191 >= +1
 c71: +1 x5 +1 x9 +1 x22 +1 x26 +1 x32 +1 x34 +1 x50 +1 x52 +1 x63 +1 x66 +1 x76 +1 x79 +1 x81 +1 x86
  +1 x88 +1 x93 +1 x98 +1 x100 +1 x107 +1 x109 +1 x131 +1 x135 +1 x136 +1 x138 +1 x156 +1 x163 +1 x164
  +1 x171 +1 x176 +1 x177 >= +1
 c72: +1 x4 +1 x10 +1 x15 +1 x16 +1 x18 +1 x22 +1 x23 +1 x29 +1 x34 +1 x36 +1 x41 +1 x50 +1 x56 +1 x57
  +1 x60 +1 x66 +1 x70 +1 x78 +1 x80 +1 x88 +1 x91 +1 x97 +1 x105 +1 x107 +1 x109 +1 x110 +1 x111 +1 x112
  +1 x118 +1 x126 +1 x128 +1 x131 +1 x134 +1 x135 +1 x146 +1 x162 +1 x165 +1 x175 +1 x194 +1 x199 >= +1
 c73: +1 x1 +1 x16 +1 x25 +1 x30 +1 x33 +1 x38 +1 x39 +1 x51 +1 x57 +1 x62 +1 x67 +1 x74 +1 x81 +1 x84
  +1 x90 +1 x96 +1 x97 +1 x118 +1 x122 +1 x135 +1 x138 +1 x143 +1 x151 +1 x152 +1 x157 +1 x159 +1 x168
  +1 x170 +1 x179 +1 x180 +1 x191 +1 x196 >= +1
 c74: +1 x4 +1 x7 +1 x11 +1 x13 +1 x20 +1 x21 +1 x37 +1 x40 +1 x44 +1 x49 +1 x62 +1 x63 +1 x68 +1 x69
  +1 x74 +1 x83 +1 x90 +1 x98 +1 x99 +1 x126 +1 x136 +1 x137 +1 x145 +1 x147 +1 x149 +1 x150 +1 x163 +1 x173
  +1 x176 >= +1
 c75: +1 x4 +1 x16 +1 x21 +1 x22 +1 x25 +1 x27 +1 x28 +1 x43 +1 x44 +1 x54 +1 x68 +1 x81 +1 x85 +1 x89
  +1 x94 +1 x118 +1 x121 +1 x122 +1 x128 +1 x130 +1 x132 +1 x135 +1 x136 +1 x140 +1 x142 +1 x154 +1 x155
  +1 x157 +1 x158 +1 x163 +1 x183 +1 x186 +1 x193 >= +1
 c76: +1 x1 +1 x24 +1 x27 +1 x30 +1 x34 +1 x37 +1 x39 +1 x49 +1 x60 +1 x64 +1 x69 +1 x75 +1 x76 +1 x93
  +1 x97 +1 x113 +1 x117 +1 x124 +1 x125 +1 x128 +1 x131 +1 x136 +1 x138 +1 x140 +1 x151 +1 x164 +1 x165
  +1 x179 +1 x183 +1 x188 +1 x194 +1 x195 >= +1
 c77: +1 x2 +1 x14 +1 x21 +1 x42 +1 x47 +1 x54 +1 x59 +1 x65 +1 x67 +1 x83 +1 x86 +1 x87 +1 x90 +1 x92
  +1 x94 +1 x97 +1 x99 +1 x104 +1 x111 +1 x125 +1 x129 +1 x133 +1 x139 +1 x148 +1 x157 +1 x162 +1 x170
  +1 x190 +1 x193 +1 x195 +1 x196 +1 x199 >= +1
 c78: +1 x6 +1 x16 +1 x24 +1 x26 +1 x36 +1 x43 +1 x52 +1 x54 +1 x66 +1 x82 +1 x87 +1 x93 +1 x99 +1 x108
  +1 x127 +1 x133 +1 x140 +1 x148 +1 x151 +1 x160 +1 x162 +1 x175 +1 x186 +1 x196 >= +1
 c79: +1 x4 +1 x9 +1 x14 +1 x18 +1 x20 +1 x32 +1 x38 +1 x40 +1 x49 +1 x50 +1 x65 +1 x68 +1 x71 +1 x74
  +1 x84 +1 x93 +1 x96 +1 x103 +1 x112 +1 x116 +1 x120 +1 x121 +1 x124 +1 x130 +1 x141 +1 x156 +1 x159
  +1 x165 +1 x188 +1 x192 >= +1
 c80: +1 x6 +1 x10 +1 x25 +1 x27 +1 x28 +1 x31 +1 x41 +1 x44 +1 x47 +1 x49 +1 x52 +1 x61 +1 x65 +1 x67
  +1 x70 +1 x74 +1 x75 +1 x76 +1 x87 +1 x93 +1 x94 +1 x97 +1 x106 +1 x108 +1 x111 +1 x115 +1 x119 +1 x128
  +1 x135 +1 x136 +1 x143 +1 x145 +1 x151 +1 x159 +1 x162 +1 x165 +1 x172 +1 x179 +1 x188 +1 x190 +1 x191
  +1 x193 >= +1
 c81: +1 x0 +1 x9 +1 x13 +1 x19 +1 x21 +1 x25 +1 x33 +1 x47 +1 x52 +1 x67 +1 x69 +1 x75 +1 x79 +1 x88
  +1 x90 +1 x102 +1 x105 +1 x108 +1 x112 +1 x140 +1 x142 +1 x147 +1 x151 +1 x154 +1 x157 +1 x162 +1 x165
  +1 x172 +1 x175 +1 x179 +1 x181 +1 x184 +1 x195 >= +1
 c82: +1 x5 +1 x9 +1 x10 +1 x12 +1 x15 +1 x21 +1 x26 +1 x31 +1 x37 +1 x38 +1 x40 +1 x67 +1 x75 +1 x76
  +1 x79 +1 x86 +1 x88 +1 x101 +1 x102 +1 x106 +1 x115 +1 x130 +1 x139 +1 x144 +1 x149 +1 x158 +1 x171
  +1 x179 +1 x181 >= +1
 c83: +1 x3 +1 x13 +1 x24 +1 x27 +1 x29 +1 x36 +1 x45 +1 x60 +1 x62 +1 x88 +1 x93 +1 x96 +1 x98 +1 x100
  +1 x101 +1 x106 +1 x107 +1 x110 +1 x120 +1 x126 +1 x127 +1 x134 +1 x136 +1 x140 +1 x145 +1 x147 +1 x148
  +1 x149 +1 x150 +1 x153 +1 x159 +1 x161 +1 x165 +1 x171 +1 x173 +1 x174 +1 x176 +1 x186 >= +1
 c84: +1 x4 +1 x8 +1 x23 +1 x26 +1 x27 +1 x40 +1 x52 +1 x61 +1 x62 +1 x75 +1 x93 +1 x97 +1 x100 +1 x104
  +1 x110 +1 x114 +1 x115 +1 x121 +1 x148 +1 x150 +1 x165 +1 x168 +1 x169 +1 x172 +1 x177 +1 x179 +1 x180
  +1 x182 +1 x190 >= +1
 c85: +1 x2 +1 x13 +1 x15 +1 x19 +1 x28 +1 x30 +1 x33 +1 x35 +1 x41 +1 x45 +1 x50 +1 x58 +1 x73 +1 x75
  +1 x82 +1 x86 +1 x90 +1 x94 +1 x101 +1 x131 +1 x132 +1 x155 +1 x157 +1 x159 +1 x164 +1 x168 +1 x171
  +1 x175 +1 x185 +1 x191 +1 x192 +1 x194 >= +1
 c86: +1 x5 +1 x23 +1 x44 +1 x46 +1 x55 +1 x60 +1 x66 +1 x72 +1 x80 +1 x86 +1 x90 +1 x91 +1 x101 +1 x104
  +1 x106 +1 x108 +1 x114 +1 x120 +1 x127 +1 x133 +1 x135 +1 x137 +1 x147 +1 x148 +1 x151 +1 x162 +1 x189
  >= +1
 c87: +1 x0 +1 x12 +1 x17 +1 x19 +1 x37 +1 x41 +1 x48 +1 x50 +1 x55 +1 x60 +1 x66 +1 x67 +1 x76 +1 x82
  +1 x86 +1 x89 +1 x93 +1 x95 +1 x99 +1 x104 +1 x105 +1 x111 +1 x113 +1 x129 +1 x135 +1 x141 +1 x144 +1 x148
  +1 x161 +1 x169 +1 x177 +1 x194 >= +1
 c88: +1 x6 +1 x24 +1 x26 +1 x37 +1 x39 +1 x58 +1 x63 +1 x64 +1 x66 +1 x69 +1 x71 +1 x76 +1 x86 +1 x100
  +1 x101 +1 x126 +1 x127 +1 x129 +1 x140 +1 x142 +1 x143 +1 x159 +1 x168 +1 x172 +1 x179 +1 x184 +1 x188
  >= +1
 c89: +1 x4 +1 x7 +1 x12 +1 x21 +1 x38 +1 x39 +1 x42 +1 x52 +1 x53 +1 x69 +1 x76 +1 x77 +1 x84 +1 x86
  +1 x89 +1 x98 +1 x100 +1 x131 +1 x134 +1 x144 +1 x147 +1 x153 +1 x158 +1 x163 +1 x165 +1 x179 +1 x188
  >= +1
 c90: +1 x0 +1 x17 +1 x31 +1 x47 +1 x49 +1 x58 +1 x59 +1 x67 +1 x78 +1 x79 +1 x85 +1 x93 +1 x109 +1 x110
  +1 x112 +1 x113 +1 x118 +1 x129 +1 x130 +1 x136 +1 x144 +1 x154 +1 x155 +1 x157 +1 x159 +1 x172 +1 x177
  +1 x180 +1 x185 >= +1
 c91: +1 x0 +1 x19 +1 x24 +1 x55 +1 x56 +1 x63 +1 x69 +1 x71 +1 x78 +1 x89 +1 x93 +1 x96 +1 x97 +1 x104
  +1 x113 +1 x117 +1 x118 +1 x128 +1 x133 +1 x145 +1 x151 +1 x159 +1 x161 +1 x168 +1 x186 +1 x192 +1 x195
  +1 x197 >= +1
 c92: +1 x2 +1 x7 +1 x17 +1 x21 +1 x34 +1 x37 +1 x40 +1 x42 +1 x46 +1 x47 +1 x49 +1 x58 +1 x59 +1 x69
  +1 x90 +1 x94 +1 x105 +1 x110 +1 x113 +1 x121 +1 x130 +1 x131 +1 x134 +1 x148 +1 x158 +1 x165 +1 x170
  +1 x178 +1 x199 >= +1
 c93: +1 x1 +1 x13 +1 x22 +1 x31 +1 x34 +1 x42 +1 x47 +1 x56 +1 x57 +1 x66 +1 x70 +1 x87 +1 x95 +1 x102
  +1 x104 +1 x112 +1 x116 +1 x125 +1 x130 +1 x146 +1 x153 +1 x158 +1 x160 +1 x172 +1 x190 +1 x196 >= +1
 c94: +1 x1 +1 x13 +1 x31 +1 x32 +1 x35 +1 x42 +1 x45 +1 x47 +1 x80 +1 x83 +1 x85 +1 x88 +1 x105 +1 x111
  +1 x119 +1 x128 +1 x133 +1 x134 +1 x140 +1 x143 +1 x144 +1 x145 +1 x175 +1 x180 +1 x181 +1 x184 +1 x186
  +1 x189 +1 x191 +1 x192 +1 x199 >= +1
 c95: +1 x6 +1 x16 +1 x24 +1 x31 +1 x33 +1 x35 +1 x43 +1 x46 +1 x51 +1 x55 +1 x75 +1 x76 +1 x80 +1 x82
  +1 x85 +1 x94 +1 x96 +1 x100 +1 x106 +1 x117 +1 x133 +1 x137 +1 x142 +1 x153 +1 x155 +1 x157 +1 x163
  +1 x176 +1 x177 >= +1
 c96: +1 x2 +1 x7 +1 x8 +1 x11 +1 x16 +1 x18 +1 x19 +1 x28 +1 x30 +1 x31 +1 x32 +1 x44 +1 x52 +1 x57 +1 x60
  +1 x66 +1 x68 +1 x77 +1 x78 +1 x90 +1 x94 +1 x97 +1 x101 +1 x106 +1 x125 +1 x131 +1 x132 +1 x140 +1 x144
  +1 x148 +1 x149 +1 x153 +1 x160 +1 x162 +1 x169 +1 x177 +1 x185 +1 x196 >= +1
 c97: +1 x4 +1 x8 +1 x23 +1 x24 +1 x30 +1 x34 +1 x36 +1 x44 +1 x55 +1 x58 +1 x61 +1 x68 +1 x89 +1 x92
  +1 x94 +1 x100 +1 x102 +1 x109 +1 x111 +1 x113 +1 x116 +1 x127 +1 x128 +1 x144 +1 x148 +1 x150 +1 x152
  +1 x162 +1 x163 +1 x166 +1 x179 +1 x182 +1 x183 +1 x188 +1 x198 >= +1
 c98: +1 x2 +1 x10 +1 x29 +1 x32 +1 x34 +1 x35 +1 x58 +1 x61 +1 x70 +1 x73 +1 x78 +1 x90 +1 x94 +1 x95
  +1 x101 +1 x102 +1 x116 +1 x120 +1 x121 +1 x124 +1 x126 +1 x141 +1 x160 +1 x161 +1 x174 +1 x180 +1 x181
  +1 x182 +1 x194 >= +1
 c99: +1 x1 +1 x8 +1 x14 +1 x19 +1 x26 +1 x27 +1 x31 +1 x35 +1 x36 +1 x37 +1 x51 +1 x57 +1 x60 +1 x63
  +1 x69 +1 x70 +1 x87 +1 x91 +1 x100 +1 x101 +1 x105 +1 x116 +1 x120 +1 x128 +1 x149 +1 x152 +1 x156
  +1 x163 +1 x173 +1 x188 +1 x194 >= +1
Bounds
 0 <= x0 <= 1
 0 <= x1 <= 1
 0 <= x2 <= 1
 0 <= x3 <= 1
 0 <= x4 <= 1
 0 <= x5 <= 1
 0 <= x6 <= 1
 0 <= x7 <= 1
 0 <= x8 <= 1
 0 <= x9 <= 1
 0 <= x10 <= 1
 0 <= x11 <= 1
 0 <= x12 <= 1
 0 <= x13 <= 1
 0 <= x14 <= 1
 0 <= x15 <= 1
 0 <= x16 <= 1
 0 <= x17 <= 1
 0 <= x18 <= 1
 0 <= x19 <= 1
 0 <= x20 <= 1
 0 <= x21 <= 1
 0 <= x22 <= 1
 0 <= x23 <= 1
 0 <= x24 <= 1
 0 <= x25 <= 1
 0 <= x26 <= 1
 0 <= x27 <= 1
 0 <= x28 <= 1
 0 <= x29 <= 1
 0 <= x30 <= 1
 0 <= x31 <= 1
 0 <= x32 <= 1
 0 <= x33 <= 1
 0 <= x34 <= 1
 0 <= x35 <= 1
 0 <= x36 <= 1
 0 <= x37 <= 1
 0 <= x38 <= 1
 0 <= x39 <= 1
 0 <= x40 <= 1
 0 <= x41 <= 1
 0 <= x42 <= 1
 0 <= x43 <= 1
 0 <= x44 <= 1
 0 <= x45 <= 1
 0 <= x46 <= 1
 0 <= x47 <= 1
 0 <= x48 <= 1
 0 <= x49 <= 1
 0 <= x50 <= 1
 0 <= x51 <= 1
 0 <= x52 <= 1
 0 <= x53 <= 1
 0 <= x54 <= 1
 0 <= x55 <= 1
 0 <= x56 <= 1
 0 <= x57 <= 1
 0 <= x58 <= 1
 0 <= x59 <= 1
 0 <= x60 <= 1
 0 <= x61 <= 1
 0 <= x62 <= 1
 0 <= x63 <= 1
 0 <= x64 <= 1
 0 <= x65 <= 1
 0 <= x66 <= 1
 0 <= x67 <= 1
 0 <= x68 <= 1
 0 <= x69 <= 1
 0 <= x70 <= 1
 0 <= x71 <= 1
 0 <= x72 <= 1
 0 <= x73 <= 1
 0 <= x74 <= 1
 0 <= x75 <= 1
 0 <= x76 <= 1
 0 <= x77 <= 1
 0 <= x78 <= 1
 0 <= x79 <= 1
 0 <= x80 <= 1
 0 <= x81 <= 1
 0 <= x82 <= 1
 0 <= x83 <= 1
 0 <= x84 <= 1
 0 <= x85 <= 1
 0 <= x86 <= 1
 0 <= x87 <= 1
 0 <= x88 <= 1
 0 <= x89 <= 1
 0 <= x90 <= 1
 0 <= x91 <= 1
 0 <= x92 <= 1
 0 <= x93 <= 1
 0 <= x94 <= 1
 0 <= x95 <= 1
 0 <= x96 <= 1
 0 <= x97 <= 1
 0 <= x98 <= 1
 0 <= x99 <= 1
 0 <= x100 <= 1
 0 <= x101 <= 1
 0 <= x102 <= 1
 0 <= x103 <= 1
 0 <= x104 <= 1
 0 <= x105 <= 1
 0 <= x106 <= 1
 0 <= x107 <= 1
 0 <= x108 <= 1
 0 <= x109 <= 1
 0 <= x110 <= 1
 0 <= x111 <= 1
 0 <= x112 <= 1
 0 <= x113 <= 1
 0 <= x114 <= 1
 0 <= x115 <= 1
 0 <= x116 <= 1
 0 <= x117 <= 1
 0 <= x118 <= 1
 0 <= x119 <= 1
 0 <= x120 <= 1
 0 <= x121 <= 1
 0 <= x122 <= 1
 0 <= x123 <= 1
 0 <= x124 <= 1
 0 <= x125 <= 1
 0 <= x126 <= 1
 0 <= x127 <= 1
 0 <= x128 <= 1
 0 <= x129 <= 1
 0 <= x130 <= 1
 0 <= x131 <= 1
 0 <= x132 <= 1
 0 <= x133 <= 1
 0 <= x134 <= 1
 0 <= x135 <= 1
 0 <= x136 <= 1
 0 <= x137 <= 1
 0 <= x138 <= 1
 0 <= x139 <= 1
 0 <= x140 <= 1
 0 <= x141 <= 1
 0 <= x142 <= 1
 0 <= x143 <= 1
 0 <= x144 <= 1
 0 <= x145 <= 1
 0 <= x146 <= 1
 0 <= x147 <= 1
 0 <= x148 <= 1
 0 <= x149 <= 1
 0 <= x150 <= 1
 0 <= x151 <= 1
 0 <= x152 <= 1
 0 <= x153 <= 1
 0 <= x154 <= 1
 0 <= x155 <= 1
 0 <= x156 <= 1
 0 <= x157 <= 1
 0 <= x158 <= 1
 0 <= x159 <= 1
 0 <= x160 <= 1
 0 <= x161 <= 1
 0 <= x162 <= 1
 0 <= x163 <= 1
 0 <= x164 <= 1
 0 <= x165 <= 1
 0 <= x166 <= 1
 0 <= x167 <= 1
 0 <= x168 <= 1
 0 <= x169 <= 1
 0 <= x170 <= 1
 0 <= x171 <= 1
 0 <= x172 <= 1
 0 <= x173 <= 1
 0 <= x174 <= 1
 0 <= x175 <= 1
 0 <= x176 <= 1
 0 <= x177 <= 1
 0 <= x178 <= 1
 0 <= x179 <= 1
 0 <= x180 <= 1
 0 <= x181 <= 1
 0 <= x182 <= 1
 0 <= x183 <= 1
 0 <= x184 <= 1
 0 <= x185 <= 1
 0 <= x186 <= 1
 0 <= x187 <= 1
 0 <= x188 <= 1
 0 <= x189 <= 1
 0 <= x190 <= 1
 0 <= x191 <= 1
 0 <= x192 <= 1
 0 <= x193 <= 1
 0 <= x194 <= 1
 0 <= x195 <= 1
 0 <= x196 <= 1
 0 <= x197 <= 1
 0 <= x198 <= 1
 0 <= x199 <= 1
Binaries
 x0 x1 x2 x3 x4 x5 x6 x7 x8 x9 x10 x11 x12 x13 x14 x15 x16 x17 x18 x19 x20 x21 x22 x23 x24 x25 x26 x27
 x28 x29 x30 x31 x32 x33 x34 x35 x36 x37 x38 x39 x40 x41 x42 x43 x44 x45 x46 x47 x48 x49 x50 x51 x52 x53
 x54 x55 x56 x57 x58 x59 x60 x61 x62 x63 x64 x65 x66 x67 x68 x69 x70 x71 x72 x73 x74 x75 x76 x77 x78 x79
 x80 x81 x82 x83 x84 x85 x86 x87 x88 x89 x90 x91 x92 x93 x94 x95 x96 x97 x98 x99 x100 x101 x102 x103 x104
 x105 x106 x107 x108 x109 x110 x111 x112 x113 x114 x115 x116 x117 x118 x119 x120 x121 x122 x123 x124 x125
 x126 x127 x128 x129 x130 x131 x132 x133 x134 x135 x136 x137 x138 x139 x140 x141 x142 x143 x144 x145 x146
 x147 x148 x149 x150 x151 x152 x153 x154 x155 x156 x157 x158 x159 x160 x161 x162 x163 x164 x165 x166 x167
 x168 x169 x170 x171 x172 x173 x174 x175 x176 x177 x178 x179 x180 x181 x182 x183 x184 x185 x186 x187 x188
 x189 x190 x191 x192 x193 x194 x195 x196 x197 x198 x199
End
